90 4005
1 2 152
1 3 249
1 4 131
1 5 256
1 6 147
1 7 202
1 8 169
1 9 138
1 10 119
1 11 148
1 12 93
1 13 26
1 14 150
1 15 258
1 16 129
1 17 69
1 18 110
1 19 97
1 20 106
1 21 152
1 22 7
1 23 171
1 24 33
1 25 176
1 26 20
1 27 49
1 28 206
1 29 28
1 30 54
1 31 0
1 32 192
1 33 165
1 34 184
1 35 165
1 36 253
1 37 174
1 38 33
1 39 113
1 40 1
1 41 117
1 42 235
1 43 99
1 44 219
1 45 160
1 46 183
1 47 223
1 48 141
1 49 48
1 50 242
1 51 2
1 52 156
1 53 36
1 54 232
1 55 172
1 56 176
1 57 182
1 58 91
1 59 113
1 60 104
1 61 160
1 62 176
1 63 9
1 64 33
1 65 216
1 66 267
1 67 212
1 68 208
1 69 76
1 70 44
1 71 120
1 72 226
1 73 167
1 74 178
1 75 35
1 76 173
1 77 242
1 78 52
1 79 257
1 80 2
1 81 215
1 82 148
1 83 62
1 84 22
1 85 135
1 86 32
1 87 252
1 88 92
1 89 8
1 90 264
2 3 152
2 4 76
2 5 19
2 6 100
2 7 26
2 8 178
2 9 60
2 10 133
2 11 212
2 12 106
2 13 9
2 14 32
2 15 141
2 16 44
2 17 71
2 18 200
2 19 26
2 20 148
2 21 62
2 22 172
2 23 158
2 24 145
2 25 32
2 26 181
2 27 86
2 28 39
2 29 32
2 30 90
2 31 207
2 32 267
2 33 246
2 34 252
2 35 17
2 36 13
2 37 95
2 38 222
2 39 63
2 40 13
2 41 96
2 42 216
2 43 60
2 44 183
2 45 234
2 46 184
2 47 213
2 48 198
2 49 12
2 50 110
2 51 35
2 52 213
2 53 220
2 54 72
2 55 217
2 56 34
2 57 267
2 58 89
2 59 187
2 60 85
2 61 221
2 62 256
2 63 94
2 64 173
2 65 226
2 66 149
2 67 162
2 68 250
2 69 238
2 70 29
2 71 263
2 72 222
2 73 158
2 74 167
2 75 245
2 76 231
2 77 172
2 78 94
2 79 41
2 80 199
2 81 220
2 82 34
2 83 143
2 84 90
2 85 52
2 86 265
2 87 26
2 88 163
2 89 226
2 90 151
3 4 160
3 5 78
3 6 122
3 7 259
3 8 110
3 9 122
3 10 6
3 11 147
3 12 205
3 13 231
3 14 255
3 15 109
3 16 39
3 17 64
3 18 60
3 19 4
3 20 42
3 21 245
3 22 228
3 23 125
3 24 222
3 25 236
3 26 256
3 27 35
3 28 77
3 29 21
3 30 68
3 31 93
3 32 69
3 33 125
3 34 219
3 35 160
3 36 65
3 37 223
3 38 195
3 39 253
3 40 115
3 41 26
3 42 150
3 43 11
3 44 225
3 45 245
3 46 70
3 47 47
3 48 248
3 49 75
3 50 5
3 51 208
3 52 38
3 53 50
3 54 187
3 55 191
3 56 154
3 57 7
3 58 74
3 59 99
3 60 179
3 61 1
3 62 245
3 63 84
3 64 110
3 65 122
3 66 82
3 67 140
3 68 196
3 69 113
3 70 259
3 71 190
3 72 260
3 73 149
3 74 19
3 75 1
3 76 146
3 77 183
3 78 219
3 79 255
3 80 3
3 81 202
3 82 89
3 83 213
3 84 167
3 85 98
3 86 262
3 87 94
3 88 154
3 89 240
3 90 223
4 5 128
4 6 36
4 7 165
4 8 164
4 9 23
4 10 202
4 11 219
4 12 139
4 13 253
4 14 90
4 15 88
4 16 260
4 17 56
4 18 138
4 19 261
4 20 92
4 21 9
4 22 182
4 23 189
4 24 84
4 25 166
4 26 96
4 27 118
4 28 83
4 29 33
4 30 203
4 31 223
4 32 241
4 33 149
4 34 96
4 35 268
4 36 104
4 37 117
4 38 227
4 39 181
4 40 29
4 41 135
4 42 255
4 43 241
4 44 23
4 45 265
4 46 15
4 47 141
4 48 156
4 49 82
4 50 71
4 51 113
4 52 66
4 53 258
4 54 193
4 55 171
4 56 156
4 57 218
4 58 208
4 59 222
4 60 88
4 61 223
4 62 87
4 63 225
4 64 254
4 65 60
4 66 18
4 67 63
4 68 44
4 69 24
4 70 223
4 71 160
4 72 260
4 73 168
4 74 254
4 75 72
4 76 54
4 77 52
4 78 267
4 79 179
4 80 44
4 81 253
4 82 258
4 83 18
4 84 158
4 85 244
4 86 161
4 87 153
4 88 59
4 89 29
4 90 174
5 6 47
5 7 25
5 8 110
5 9 33
5 10 52
5 11 184
5 12 141
5 13 55
5 14 24
5 15 135
5 16 57
5 17 20
5 18 147
5 19 250
5 20 49
5 21 15
5 22 79
5 23 161
5 24 93
5 25 250
5 26 20
5 27 212
5 28 7
5 29 168
5 30 139
5 31 70
5 32 140
5 33 8
5 34 204
5 35 187
5 36 40
5 37 179
5 38 149
5 39 210
5 40 191
5 41 178
5 42 129
5 43 200
5 44 29
5 45 114
5 46 29
5 47 130
5 48 133
5 49 234
5 50 131
5 51 219
5 52 179
5 53 38
5 54 66
5 55 260
5 56 212
5 57 33
5 58 140
5 59 33
5 60 171
5 61 67
5 62 150
5 63 0
5 64 49
5 65 60
5 66 17
5 67 184
5 68 142
5 69 43
5 70 185
5 71 13
5 72 182
5 73 188
5 74 257
5 75 21
5 76 241
5 77 12
5 78 230
5 79 151
5 80 231
5 81 120
5 82 66
5 83 53
5 84 181
5 85 169
5 86 120
5 87 156
5 88 56
5 89 215
5 90 55
6 7 161
6 8 154
6 9 251
6 10 203
6 11 106
6 12 161
6 13 77
6 14 37
6 15 110
6 16 161
6 17 56
6 18 13
6 19 68
6 20 116
6 21 22
6 22 217
6 23 59
6 24 49
6 25 60
6 26 223
6 27 230
6 28 229
6 29 233
6 30 241
6 31 236
6 32 253
6 33 139
6 34 107
6 35 19
6 36 131
6 37 183
6 38 115
6 39 156
6 40 181
6 41 170
6 42 14
6 43 224
6 44 21
6 45 117
6 46 186
6 47 184
6 48 182
6 49 93
6 50 97
6 51 138
6 52 212
6 53 159
6 54 181
6 55 150
6 56 219
6 57 209
6 58 261
6 59 12
6 60 67
6 61 18
6 62 259
6 63 219
6 64 152
6 65 132
6 66 226
6 67 112
6 68 98
6 69 14
6 70 24
6 71 241
6 72 31
6 73 43
6 74 258
6 75 230
6 76 79
6 77 245
6 78 6
6 79 127
6 80 22
6 81 44
6 82 163
6 83 105
6 84 253
6 85 74
6 86 257
6 87 55
6 88 82
6 89 237
6 90 47
7 8 127
7 9 146
7 10 188
7 11 33
7 12 113
7 13 134
7 14 149
7 15 215
7 16 252
7 17 137
7 18 214
7 19 76
7 20 205
7 21 34
7 22 68
7 23 114
7 24 172
7 25 53
7 26 244
7 27 230
7 28 241
7 29 151
7 30 260
7 31 102
7 32 77
7 33 217
7 34 44
7 35 111
7 36 254
7 37 109
7 38 78
7 39 252
7 40 141
7 41 184
7 42 181
7 43 116
7 44 229
7 45 26
7 46 247
7 47 170
7 48 15
7 49 264
7 50 174
7 51 89
7 52 79
7 53 166
7 54 38
7 55 77
7 56 183
7 57 259
7 58 106
7 59 46
7 60 5
7 61 246
7 62 220
7 63 77
7 64 152
7 65 124
7 66 186
7 67 211
7 68 41
7 69 244
7 70 135
7 71 15
7 72 226
7 73 52
7 74 192
7 75 112
7 76 105
7 77 64
7 78 242
7 79 20
7 80 118
7 81 136
7 82 177
7 83 124
7 84 148
7 85 268
7 86 153
7 87 16
7 88 39
7 89 52
7 90 101
8 9 5
8 10 101
8 11 129
8 12 0
8 13 52
8 14 116
8 15 265
8 16 89
8 17 45
8 18 265
8 19 172
8 20 199
8 21 34
8 22 86
8 23 77
8 24 188
8 25 133
8 26 254
8 27 222
8 28 174
8 29 136
8 30 34
8 31 35
8 32 195
8 33 138
8 34 55
8 35 214
8 36 114
8 37 92
8 38 171
8 39 165
8 40 11
8 41 20
8 42 145
8 43 209
8 44 161
8 45 67
8 46 10
8 47 63
8 48 39
8 49 117
8 50 179
8 51 252
8 52 13
8 53 32
8 54 20
8 55 194
8 56 225
8 57 39
8 58 117
8 59 236
8 60 30
8 61 153
8 62 176
8 63 155
8 64 25
8 65 268
8 66 11
8 67 71
8 68 24
8 69 125
8 70 130
8 71 15
8 72 100
8 73 217
8 74 246
8 75 87
8 76 141
8 77 211
8 78 48
8 79 202
8 80 195
8 81 128
8 82 142
8 83 110
8 84 265
8 85 75
8 86 70
8 87 256
8 88 178
8 89 12
8 90 55
9 10 92
9 11 135
9 12 64
9 13 76
9 14 145
9 15 14
9 16 167
9 17 224
9 18 93
9 19 205
9 20 82
9 21 60
9 22 224
9 23 172
9 24 22
9 25 38
9 26 60
9 27 9
9 28 25
9 29 108
9 30 189
9 31 167
9 32 254
9 33 49
9 34 28
9 35 54
9 36 203
9 37 172
9 38 204
9 39 105
9 40 2
9 41 206
9 42 7
9 43 14
9 44 132
9 45 8
9 46 128
9 47 208
9 48 242
9 49 99
9 50 221
9 51 170
9 52 195
9 53 60
9 54 161
9 55 155
9 56 237
9 57 44
9 58 169
9 59 255
9 60 134
9 61 162
9 62 269
9 63 189
9 64 242
9 65 192
9 66 257
9 67 139
9 68 226
9 69 126
9 70 55
9 71 246
9 72 77
9 73 51
9 74 4
9 75 215
9 76 13
9 77 237
9 78 83
9 79 60
9 80 196
9 81 125
9 82 47
9 83 8
9 84 200
9 85 124
9 86 218
9 87 161
9 88 136
9 89 14
9 90 192
10 11 14
10 12 266
10 13 214
10 14 77
10 15 94
10 16 59
10 17 44
10 18 262
10 19 158
10 20 189
10 21 142
10 22 109
10 23 90
10 24 16
10 25 202
10 26 235
10 27 118
10 28 62
10 29 2
10 30 174
10 31 260
10 32 27
10 33 176
10 34 26
10 35 184
10 36 115
10 37 100
10 38 9
10 39 242
10 40 127
10 41 156
10 42 49
10 43 9
10 44 9
10 45 139
10 46 142
10 47 114
10 48 79
10 49 40
10 50 73
10 51 169
10 52 250
10 53 39
10 54 26
10 55 185
10 56 213
10 57 91
10 58 255
10 59 168
10 60 206
10 61 38
10 62 214
10 63 215
10 64 190
10 65 260
10 66 251
10 67 162
10 68 128
10 69 215
10 70 45
10 71 210
10 72 95
10 73 122
10 74 235
10 75 259
10 76 251
10 77 237
10 78 110
10 79 223
10 80 52
10 81 164
10 82 153
10 83 147
10 84 226
10 85 67
10 86 46
10 87 223
10 88 35
10 89 173
10 90 36
11 12 146
11 13 116
11 14 54
11 15 227
11 16 78
11 17 238
11 18 34
11 19 250
11 20 152
11 21 116
11 22 71
11 23 7
11 24 175
11 25 217
11 26 154
11 27 101
11 28 130
11 29 100
11 30 254
11 31 208
11 32 142
11 33 254
11 34 0
11 35 35
11 36 251
11 37 32
11 38 138
11 39 143
11 40 72
11 41 35
11 42 132
11 43 47
11 44 139
11 45 195
11 46 224
11 47 15
11 48 234
11 49 26
11 50 163
11 51 18
11 52 95
11 53 142
11 54 165
11 55 97
11 56 74
11 57 209
11 58 63
11 59 75
11 60 214
11 61 162
11 62 190
11 63 80
11 64 11
11 65 228
11 66 265
11 67 178
11 68 82
11 69 64
11 70 201
11 71 47
11 72 258
11 73 30
11 74 53
11 75 167
11 76 189
11 77 234
11 78 158
11 79 119
11 80 257
11 81 182
11 82 152
11 83 155
11 84 47
11 85 32
11 86 126
11 87 227
11 88 75
11 89 222
11 90 42
12 13 191
12 14 48
12 15 9
12 16 58
12 17 60
12 18 215
12 19 51
12 20 52
12 21 15
12 22 165
12 23 8
12 24 211
12 25 36
12 26 176
12 27 146
12 28 60
12 29 200
12 30 19
12 31 256
12 32 28
12 33 249
12 34 57
12 35 262
12 36 235
12 37 249
12 38 152
12 39 96
12 40 231
12 41 185
12 42 54
12 43 261
12 44 243
12 45 92
12 46 123
12 47 5
12 48 226
12 49 15
12 50 123
12 51 189
12 52 86
12 53 74
12 54 166
12 55 122
12 56 252
12 57 143
12 58 261
12 59 252
12 60 71
12 61 186
12 62 52
12 63 202
12 64 145
12 65 102
12 66 225
12 67 180
12 68 243
12 69 88
12 70 248
12 71 262
12 72 76
12 73 231
12 74 90
12 75 187
12 76 30
12 77 179
12 78 47
12 79 136
12 80 172
12 81 248
12 82 104
12 83 67
12 84 113
12 85 1
12 86 96
12 87 23
12 88 178
12 89 162
12 90 24
13 14 97
13 15 17
13 16 10
13 17 144
13 18 115
13 19 81
13 20 42
13 21 207
13 22 120
13 23 8
13 24 60
13 25 184
13 26 262
13 27 28
13 28 44
13 29 235
13 30 255
13 31 259
13 32 189
13 33 127
13 34 56
13 35 7
13 36 82
13 37 185
13 38 6
13 39 92
13 40 95
13 41 187
13 42 135
13 43 100
13 44 210
13 45 107
13 46 41
13 47 244
13 48 59
13 49 198
13 50 42
13 51 67
13 52 156
13 53 252
13 54 198
13 55 58
13 56 126
13 57 248
13 58 104
13 59 131
13 60 162
13 61 142
13 62 1
13 63 215
13 64 92
13 65 117
13 66 64
13 67 194
13 68 246
13 69 251
13 70 163
13 71 239
13 72 232
13 73 192
13 74 134
13 75 107
13 76 113
13 77 66
13 78 165
13 79 111
13 80 218
13 81 208
13 82 190
13 83 268
13 84 121
13 85 131
13 86 30
13 87 160
13 88 267
13 89 17
13 90 188
14 15 159
14 16 97
14 17 99
14 18 71
14 19 104
14 20 163
14 21 203
14 22 203
14 23 150
14 24 2
14 25 247
14 26 220
14 27 236
14 28 169
14 29 111
14 30 72
14 31 228
14 32 114
14 33 191
14 34 230
14 35 48
14 36 111
14 37 256
14 38 171
14 39 108
14 40 132
14 41 153
14 42 40
14 43 26
14 44 238
14 45 201
14 46 165
14 47 10
14 48 224
14 49 124
14 50 153
14 51 118
14 52 34
14 53 90
14 54 42
14 55 214
14 56 19
14 57 90
14 58 76
14 59 109
14 60 54
14 61 32
14 62 104
14 63 92
14 64 148
14 65 23
14 66 250
14 67 7
14 68 225
14 69 91
14 70 87
14 71 88
14 72 192
14 73 236
14 74 104
14 75 134
14 76 177
14 77 95
14 78 160
14 79 120
14 80 216
14 81 225
14 82 39
14 83 33
14 84 151
14 85 80
14 86 223
14 87 126
14 88 37
14 89 32
14 90 109
15 16 165
15 17 66
15 18 80
15 19 224
15 20 266
15 21 179
15 22 60
15 23 214
15 24 50
15 25 57
15 26 92
15 27 5
15 28 137
15 29 19
15 30 246
15 31 253
15 32 215
15 33 123
15 34 108
15 35 175
15 36 100
15 37 233
15 38 36
15 39 255
15 40 56
15 41 10
15 42 30
15 43 218
15 44 153
15 45 148
15 46 228
15 47 187
15 48 233
15 49 247
15 50 149
15 51 156
15 52 46
15 53 129
15 54 29
15 55 197
15 56 32
15 57 191
15 58 246
15 59 169
15 60 99
15 61 89
15 62 104
15 63 93
15 64 181
15 65 136
15 66 109
15 67 129
15 68 167
15 69 167
15 70 82
15 71 230
15 72 53
15 73 118
15 74 258
15 75 125
15 76 231
15 77 208
15 78 181
15 79 105
15 80 209
15 81 213
15 82 157
15 83 268
15 84 53
15 85 138
15 86 217
15 87 174
15 88 157
15 89 122
15 90 46
16 17 226
16 18 174
16 19 22
16 20 115
16 21 223
16 22 199
16 23 129
16 24 221
16 25 24
16 26 137
16 27 102
16 28 92
16 29 193
16 30 265
16 31 80
16 32 123
16 33 162
16 34 251
16 35 42
16 36 153
16 37 115
16 38 189
16 39 244
16 40 225
16 41 196
16 42 74
16 43 197
16 44 232
16 45 269
16 46 158
16 47 221
16 48 73
16 49 86
16 50 144
16 51 55
16 52 165
16 53 102
16 54 29
16 55 245
16 56 222
16 57 80
16 58 219
16 59 130
16 60 97
16 61 67
16 62 101
16 63 118
16 64 155
16 65 249
16 66 133
16 67 4
16 68 109
16 69 218
16 70 234
16 71 257
16 72 126
16 73 241
16 74 64
16 75 15
16 76 115
16 77 119
16 78 49
16 79 200
16 80 181
16 81 215
16 82 144
16 83 121
16 84 43
16 85 129
16 86 249
16 87 47
16 88 37
16 89 98
16 90 129
17 18 7
17 19 18
17 20 163
17 21 267
17 22 149
17 23 15
17 24 190
17 25 107
17 26 53
17 27 92
17 28 95
17 29 261
17 30 174
17 31 178
17 32 132
17 33 120
17 34 151
17 35 84
17 36 155
17 37 230
17 38 268
17 39 38
17 40 248
17 41 74
17 42 189
17 43 217
17 44 18
17 45 128
17 46 218
17 47 70
17 48 252
17 49 36
17 50 258
17 51 203
17 52 142
17 53 263
17 54 63
17 55 227
17 56 130
17 57 227
17 58 237
17 59 155
17 60 37
17 61 172
17 62 94
17 63 80
17 64 248
17 65 117
17 66 146
17 67 180
17 68 43
17 69 55
17 70 49
17 71 2
17 72 76
17 73 114
17 74 226
17 75 58
17 76 241
17 77 40
17 78 8
17 79 14
17 80 155
17 81 141
17 82 136
17 83 243
17 84 240
17 85 190
17 86 173
17 87 160
17 88 222
17 89 25
17 90 268
18 19 227
18 20 21
18 21 30
18 22 57
18 23 147
18 24 168
18 25 38
18 26 82
18 27 244
18 28 163
18 29 193
18 30 13
18 31 219
18 32 36
18 33 44
18 34 220
18 35 152
18 36 63
18 37 44
18 38 174
18 39 78
18 40 195
18 41 52
18 42 70
18 43 190
18 44 10
18 45 77
18 46 214
18 47 83
18 48 38
18 49 205
18 50 186
18 51 100
18 52 121
18 53 139
18 54 46
18 55 176
18 56 218
18 57 72
18 58 152
18 59 18
18 60 9
18 61 25
18 62 36
18 63 209
18 64 232
18 65 140
18 66 67
18 67 191
18 68 220
18 69 199
18 70 122
18 71 121
18 72 96
18 73 20
18 74 166
18 75 227
18 76 2
18 77 132
18 78 121
18 79 2
18 80 236
18 81 157
18 82 220
18 83 206
18 84 88
18 85 114
18 86 208
18 87 33
18 88 207
18 89 140
18 90 129
19 20 36
19 21 260
19 22 246
19 23 0
19 24 21
19 25 100
19 26 261
19 27 144
19 28 267
19 29 6
19 30 154
19 31 62
19 32 25
19 33 135
19 34 8
19 35 89
19 36 144
19 37 161
19 38 128
19 39 210
19 40 130
19 41 193
19 42 260
19 43 94
19 44 95
19 45 266
19 46 67
19 47 66
19 48 259
19 49 100
19 50 58
19 51 61
19 52 84
19 53 78
19 54 7
19 55 165
19 56 11
19 57 63
19 58 243
19 59 53
19 60 238
19 61 15
19 62 176
19 63 64
19 64 69
19 65 164
19 66 34
19 67 147
19 68 79
19 69 202
19 70 189
19 71 168
19 72 9
19 73 85
19 74 26
19 75 36
19 76 119
19 77 205
19 78 247
19 79 239
19 80 8
19 81 127
19 82 199
19 83 196
19 84 195
19 85 195
19 86 40
19 87 5
19 88 33
19 89 266
19 90 11
20 21 177
20 22 6
20 23 15
20 24 175
20 25 60
20 26 118
20 27 49
20 28 124
20 29 258
20 30 171
20 31 54
20 32 113
20 33 43
20 34 92
20 35 159
20 36 248
20 37 139
20 38 201
20 39 43
20 40 56
20 41 210
20 42 70
20 43 237
20 44 131
20 45 154
20 46 20
20 47 220
20 48 100
20 49 149
20 50 17
20 51 107
20 52 214
20 53 162
20 54 264
20 55 173
20 56 152
20 57 102
20 58 27
20 59 261
20 60 170
20 61 59
20 62 26
20 63 14
20 64 125
20 65 53
20 66 257
20 67 175
20 68 201
20 69 163
20 70 234
20 71 136
20 72 2
20 73 16
20 74 172
20 75 121
20 76 1
20 77 249
20 78 218
20 79 172
20 80 151
20 81 159
20 82 263
20 83 57
20 84 213
20 85 213
20 86 261
20 87 197
20 88 177
20 89 134
20 90 218
21 22 5
21 23 1
21 24 33
21 25 19
21 26 145
21 27 240
21 28 168
21 29 232
21 30 31
21 31 220
21 32 233
21 33 11
21 34 16
21 35 268
21 36 167
21 37 98
21 38 255
21 39 14
21 40 61
21 41 4
21 42 23
21 43 53
21 44 150
21 45 143
21 46 97
21 47 40
21 48 79
21 49 101
21 50 258
21 51 94
21 52 152
21 53 30
21 54 14
21 55 21
21 56 188
21 57 139
21 58 117
21 59 266
21 60 198
21 61 46
21 62 200
21 63 43
21 64 23
21 65 12
21 66 65
21 67 242
21 68 161
21 69 63
21 70 184
21 71 209
21 72 208
21 73 239
21 74 264
21 75 178
21 76 262
21 77 55
21 78 31
21 79 73
21 80 66
21 81 174
21 82 130
21 83 234
21 84 252
21 85 97
21 86 141
21 87 255
21 88 238
21 89 128
21 90 196
22 23 93
22 24 149
22 25 43
22 26 203
22 27 175
22 28 232
22 29 179
22 30 257
22 31 204
22 32 149
22 33 268
22 34 129
22 35 221
22 36 83
22 37 117
22 38 225
22 39 195
22 40 108
22 41 163
22 42 170
22 43 56
22 44 259
22 45 197
22 46 221
22 47 159
22 48 195
22 49 16
22 50 27
22 51 1
22 52 128
22 53 215
22 54 159
22 55 73
22 56 61
22 57 19
22 58 12
22 59 60
22 60 75
22 61 136
22 62 220
22 63 186
22 64 10
22 65 187
22 66 172
22 67 160
22 68 48
22 69 204
22 70 199
22 71 112
22 72 14
22 73 268
22 74 7
22 75 109
22 76 201
22 77 176
22 78 119
22 79 26
22 80 253
22 81 199
22 82 197
22 83 69
22 84 62
22 85 162
22 86 250
22 87 88
22 88 10
22 89 28
22 90 76
23 24 121
23 25 205
23 26 11
23 27 63
23 28 23
23 29 195
23 30 119
23 31 167
23 32 236
23 33 256
23 34 58
23 35 168
23 36 217
23 37 199
23 38 42
23 39 169
23 40 60
23 41 201
23 42 66
23 43 251
23 44 86
23 45 106
23 46 234
23 47 125
23 48 76
23 49 151
23 50 137
23 51 64
23 52 44
23 53 81
23 54 147
23 55 169
23 56 259
23 57 80
23 58 104
23 59 15
23 60 224
23 61 115
23 62 261
23 63 231
23 64 1
23 65 125
23 66 109
23 67 42
23 68 169
23 69 248
23 70 102
23 71 212
23 72 117
23 73 13
23 74 98
23 75 191
23 76 232
23 77 204
23 78 168
23 79 96
23 80 46
23 81 13
23 82 54
23 83 247
23 84 93
23 85 197
23 86 239
23 87 127
23 88 252
23 89 228
23 90 225
24 25 42
24 26 243
24 27 17
24 28 234
24 29 191
24 30 60
24 31 159
24 32 211
24 33 228
24 34 18
24 35 134
24 36 106
24 37 151
24 38 46
24 39 233
24 40 40
24 41 119
24 42 191
24 43 139
24 44 99
24 45 222
24 46 245
24 47 219
24 48 227
24 49 261
24 50 101
24 51 55
24 52 13
24 53 157
24 54 247
24 55 166
24 56 168
24 57 83
24 58 104
24 59 131
24 60 260
24 61 78
24 62 64
24 63 19
24 64 201
24 65 21
24 66 121
24 67 4
24 68 103
24 69 197
24 70 100
24 71 125
24 72 205
24 73 61
24 74 62
24 75 49
24 76 52
24 77 50
24 78 245
24 79 147
24 80 187
24 81 41
24 82 244
24 83 109
24 84 114
24 85 161
24 86 135
24 87 136
24 88 75
24 89 3
24 90 256
25 26 168
25 27 87
25 28 58
25 29 193
25 30 87
25 31 52
25 32 194
25 33 48
25 34 96
25 35 115
25 36 136
25 37 112
25 38 44
25 39 151
25 40 135
25 41 196
25 42 218
25 43 103
25 44 75
25 45 146
25 46 159
25 47 144
25 48 237
25 49 264
25 50 80
25 51 127
25 52 143
25 53 42
25 54 93
25 55 54
25 56 251
25 57 138
25 58 251
25 59 259
25 60 53
25 61 231
25 62 44
25 63 244
25 64 258
25 65 238
25 66 84
25 67 58
25 68 9
25 69 77
25 70 205
25 71 49
25 72 34
25 73 182
25 74 46
25 75 260
25 76 223
25 77 106
25 78 44
25 79 78
25 80 204
25 81 121
25 82 212
25 83 144
25 84 13
25 85 31
25 86 186
25 87 251
25 88 205
25 89 94
25 90 201
26 27 256
26 28 224
26 29 66
26 30 227
26 31 136
26 32 16
26 33 171
26 34 54
26 35 245
26 36 61
26 37 63
26 38 40
26 39 104
26 40 169
26 41 179
26 42 176
26 43 152
26 44 132
26 45 82
26 46 153
26 47 14
26 48 31
26 49 178
26 50 229
26 51 73
26 52 261
26 53 241
26 54 91
26 55 112
26 56 38
26 57 83
26 58 144
26 59 213
26 60 238
26 61 260
26 62 234
26 63 18
26 64 10
26 65 242
26 66 181
26 67 186
26 68 84
26 69 178
26 70 183
26 71 48
26 72 263
26 73 46
26 74 173
26 75 223
26 76 79
26 77 51
26 78 217
26 79 191
26 80 59
26 81 132
26 82 26
26 83 68
26 84 249
26 85 190
26 86 243
26 87 131
26 88 212
26 89 31
26 90 51
27 28 233
27 29 52
27 30 133
27 31 174
27 32 96
27 33 74
27 34 136
27 35 192
27 36 56
27 37 131
27 38 34
27 39 207
27 40 219
27 41 137
27 42 257
27 43 241
27 44 146
27 45 169
27 46 194
27 47 16
27 48 10
27 49 83
27 50 165
27 51 27
27 52 214
27 53 31
27 54 144
27 55 151
27 56 15
27 57 233
27 58 50
27 59 140
27 60 184
27 61 240
27 62 68
27 63 103
27 64 143
27 65 71
27 66 144
27 67 161
27 68 12
27 69 156
27 70 157
27 71 170
27 72 211
27 73 153
27 74 180
27 75 4
27 76 68
27 77 80
27 78 15
27 79 149
27 80 267
27 81 252
27 82 41
27 83 186
27 84 155
27 85 32
27 86 111
27 87 83
27 88 260
27 89 81
27 90 5
28 29 29
28 30 264
28 31 81
28 32 157
28 33 65
28 34 161
28 35 11
28 36 92
28 37 258
28 38 68
28 39 222
28 40 168
28 41 9
28 42 235
28 43 158
28 44 235
28 45 143
28 46 46
28 47 147
28 48 182
28 49 24
28 50 64
28 51 152
28 52 179
28 53 102
28 54 117
28 55 150
28 56 253
28 57 222
28 58 212
28 59 201
28 60 13
28 61 123
28 62 116
28 63 186
28 64 19
28 65 36
28 66 114
28 67 91
28 68 191
28 69 50
28 70 255
28 71 9
28 72 155
28 73 58
28 74 86
28 75 96
28 76 129
28 77 201
28 78 153
28 79 188
28 80 122
28 81 143
28 82 117
28 83 65
28 84 168
28 85 228
28 86 149
28 87 166
28 88 61
28 89 216
28 90 124
29 30 146
29 31 28
29 32 223
29 33 35
29 34 8
29 35 118
29 36 67
29 37 153
29 38 183
29 39 88
29 40 18
29 41 126
29 42 174
29 43 116
29 44 208
29 45 128
29 46 82
29 47 194
29 48 66
29 49 173
29 50 120
29 51 253
29 52 198
29 53 32
29 54 148
29 55 55
29 56 103
29 57 185
29 58 240
29 59 218
29 60 110
29 61 123
29 62 54
29 63 8
29 64 51
29 65 83
29 66 63
29 67 39
29 68 121
29 69 76
29 70 245
29 71 143
29 72 177
29 73 269
29 74 16
29 75 244
29 76 256
29 77 162
29 78 1
29 79 56
29 80 38
29 81 113
29 82 6
29 83 99
29 84 108
29 85 252
29 86 174
29 87 197
29 88 41
29 89 112
29 90 36
30 31 143
30 32 190
30 33 64
30 34 229
30 35 178
30 36 176
30 37 212
30 38 72
30 39 218
30 40 202
30 41 242
30 42 134
30 43 11
30 44 238
30 45 22
30 46 147
30 47 126
30 48 109
30 49 117
30 50 238
30 51 118
30 52 105
30 53 183
30 54 234
30 55 262
30 56 99
30 57 160
30 58 255
30 59 201
30 60 103
30 61 130
30 62 25
30 63 232
30 64 56
30 65 62
30 66 96
30 67 237
30 68 16
30 69 203
30 70 124
30 71 0
30 72 3
30 73 211
30 74 255
30 75 209
30 76 96
30 77 262
30 78 31
30 79 89
30 80 88
30 81 25
30 82 175
30 83 252
30 84 16
30 85 78
30 86 15
30 87 107
30 88 18
30 89 198
30 90 93
31 32 169
31 33 85
31 34 78
31 35 3
31 36 124
31 37 120
31 38 199
31 39 4
31 40 9
31 41 124
31 42 169
31 43 218
31 44 174
31 45 145
31 46 95
31 47 139
31 48 6
31 49 91
31 50 82
31 51 249
31 52 143
31 53 249
31 54 72
31 55 69
31 56 9
31 57 131
31 58 242
31 59 171
31 60 195
31 61 220
31 62 241
31 63 13
31 64 13
31 65 101
31 66 243
31 67 105
31 68 199
31 69 124
31 70 223
31 71 100
31 72 5
31 73 59
31 74 136
31 75 137
31 76 34
31 77 152
31 78 196
31 79 72
31 80 57
31 81 2
31 82 42
31 83 259
31 84 80
31 85 69
31 86 200
31 87 258
31 88 24
31 89 166
31 90 171
32 33 108
32 34 169
32 35 248
32 36 191
32 37 5
32 38 38
32 39 170
32 40 218
32 41 16
32 42 43
32 43 166
32 44 32
32 45 47
32 46 171
32 47 44
32 48 44
32 49 231
32 50 170
32 51 179
32 52 141
32 53 42
32 54 80
32 55 92
32 56 245
32 57 77
32 58 59
32 59 102
32 60 135
32 61 236
32 62 74
32 63 15
32 64 227
32 65 118
32 66 214
32 67 154
32 68 227
32 69 77
32 70 163
32 71 203
32 72 55
32 73 186
32 74 206
32 75 81
32 76 88
32 77 176
32 78 3
32 79 197
32 80 269
32 81 59
32 82 251
32 83 171
32 84 172
32 85 112
32 86 169
32 87 71
32 88 151
32 89 108
32 90 109
33 34 246
33 35 204
33 36 202
33 37 62
33 38 201
33 39 54
33 40 122
33 41 58
33 42 217
33 43 133
33 44 244
33 45 162
33 46 85
33 47 44
33 48 80
33 49 259
33 50 266
33 51 211
33 52 185
33 53 105
33 54 67
33 55 130
33 56 73
33 57 200
33 58 191
33 59 231
33 60 188
33 61 163
33 62 77
33 63 181
33 64 188
33 65 244
33 66 116
33 67 176
33 68 208
33 69 104
33 70 68
33 71 171
33 72 164
33 73 29
33 74 2
33 75 185
33 76 185
33 77 126
33 78 231
33 79 50
33 80 14
33 81 177
33 82 83
33 83 119
33 84 252
33 85 137
33 86 21
33 87 246
33 88 253
33 89 239
33 90 231
34 35 146
34 36 44
34 37 165
34 38 263
34 39 47
34 40 185
34 41 141
34 42 208
34 43 73
34 44 37
34 45 193
34 46 47
34 47 44
34 48 240
34 49 107
34 50 130
34 51 64
34 52 74
34 53 254
34 54 165
34 55 182
34 56 60
34 57 212
34 58 156
34 59 219
34 60 190
34 61 167
34 62 228
34 63 51
34 64 208
34 65 62
34 66 58
34 67 127
34 68 113
34 69 171
34 70 134
34 71 180
34 72 58
34 73 157
34 74 128
34 75 103
34 76 252
34 77 116
34 78 247
34 79 265
34 80 121
34 81 149
34 82 104
34 83 130
34 84 48
34 85 176
34 86 12
34 87 211
34 88 75
34 89 85
34 90 246
35 36 174
35 37 233
35 38 39
35 39 76
35 40 170
35 41 87
35 42 222
35 43 140
35 44 170
35 45 224
35 46 109
35 47 93
35 48 28
35 49 190
35 50 0
35 51 178
35 52 97
35 53 207
35 54 230
35 55 201
35 56 47
35 57 251
35 58 45
35 59 231
35 60 178
35 61 89
35 62 166
35 63 142
35 64 245
35 65 5
35 66 222
35 67 80
35 68 27
35 69 5
35 70 163
35 71 23
35 72 96
35 73 171
35 74 179
35 75 76
35 76 154
35 77 218
35 78 101
35 79 177
35 80 266
35 81 50
35 82 252
35 83 114
35 84 39
35 85 145
35 86 241
35 87 54
35 88 68
35 89 256
35 90 81
36 37 182
36 38 232
36 39 143
36 40 219
36 41 197
36 42 64
36 43 178
36 44 142
36 45 198
36 46 193
36 47 185
36 48 3
36 49 127
36 50 218
36 51 248
36 52 109
36 53 86
36 54 100
36 55 37
36 56 97
36 57 114
36 58 126
36 59 223
36 60 73
36 61 84
36 62 47
36 63 34
36 64 234
36 65 79
36 66 220
36 67 133
36 68 210
36 69 194
36 70 222
36 71 83
36 72 141
36 73 103
36 74 3
36 75 3
36 76 164
36 77 14
36 78 196
36 79 254
36 80 121
36 81 60
36 82 134
36 83 191
36 84 70
36 85 242
36 86 65
36 87 266
36 88 58
36 89 228
36 90 130
37 38 213
37 39 28
37 40 216
37 41 30
37 42 106
37 43 80
37 44 3
37 45 20
37 46 138
37 47 23
37 48 99
37 49 15
37 50 249
37 51 227
37 52 100
37 53 117
37 54 84
37 55 181
37 56 208
37 57 194
37 58 244
37 59 223
37 60 165
37 61 74
37 62 176
37 63 242
37 64 164
37 65 221
37 66 168
37 67 64
37 68 190
37 69 4
37 70 262
37 71 107
37 72 186
37 73 47
37 74 185
37 75 150
37 76 114
37 77 89
37 78 3
37 79 172
37 80 77
37 81 153
37 82 32
37 83 207
37 84 87
37 85 71
37 86 53
37 87 140
37 88 48
37 89 148
37 90 68
38 39 155
38 40 216
38 41 79
38 42 41
38 43 269
38 44 20
38 45 224
38 46 3
38 47 153
38 48 29
38 49 87
38 50 181
38 51 247
38 52 13
38 53 120
38 54 130
38 55 82
38 56 269
38 57 24
38 58 25
38 59 120
38 60 40
38 61 39
38 62 88
38 63 59
38 64 226
38 65 28
38 66 201
38 67 102
38 68 67
38 69 111
38 70 219
38 71 183
38 72 183
38 73 139
38 74 178
38 75 192
38 76 0
38 77 178
38 78 149
38 79 238
38 80 61
38 81 234
38 82 166
38 83 80
38 84 18
38 85 34
38 86 237
38 87 154
38 88 113
38 89 34
38 90 111
39 40 80
39 41 121
39 42 163
39 43 230
39 44 159
39 45 238
39 46 155
39 47 218
39 48 242
39 49 267
39 50 265
39 51 177
39 52 53
39 53 30
39 54 43
39 55 191
39 56 242
39 57 152
39 58 11
39 59 136
39 60 95
39 61 7
39 62 22
39 63 153
39 64 111
39 65 260
39 66 115
39 67 114
39 68 121
39 69 230
39 70 186
39 71 97
39 72 208
39 73 70
39 74 131
39 75 54
39 76 176
39 77 190
39 78 59
39 79 189
39 80 111
39 81 264
39 82 103
39 83 185
39 84 37
39 85 128
39 86 97
39 87 120
39 88 46
39 89 99
39 90 215
40 41 206
40 42 45
40 43 238
40 44 50
40 45 140
40 46 89
40 47 144
40 48 9
40 49 142
40 50 146
40 51 180
40 52 83
40 53 131
40 54 247
40 55 130
40 56 95
40 57 189
40 58 1
40 59 99
40 60 37
40 61 46
40 62 91
40 63 38
40 64 169
40 65 237
40 66 238
40 67 147
40 68 128
40 69 233
40 70 178
40 71 141
40 72 125
40 73 65
40 74 215
40 75 148
40 76 85
40 77 69
40 78 93
40 79 60
40 80 265
40 81 1
40 82 158
40 83 65
40 84 7
40 85 240
40 86 91
40 87 141
40 88 250
40 89 257
40 90 201
41 42 234
41 43 230
41 44 88
41 45 123
41 46 190
41 47 259
41 48 59
41 49 191
41 50 187
41 51 97
41 52 191
41 53 269
41 54 164
41 55 33
41 56 268
41 57 25
41 58 136
41 59 122
41 60 112
41 61 52
41 62 120
41 63 172
41 64 132
41 65 90
41 66 68
41 67 218
41 68 201
41 69 215
41 70 164
41 71 199
41 72 220
41 73 43
41 74 189
41 75 219
41 76 41
41 77 37
41 78 107
41 79 18
41 80 165
41 81 232
41 82 253
41 83 208
41 84 153
41 85 101
41 86 126
41 87 129
41 88 119
41 89 212
41 90 11
42 43 0
42 44 2
42 45 186
42 46 100
42 47 259
42 48 255
42 49 167
42 50 135
42 51 83
42 52 216
42 53 234
42 54 74
42 55 85
42 56 13
42 57 85
42 58 215
42 59 120
42 60 163
42 61 188
42 62 165
42 63 92
42 64 85
42 65 163
42 66 194
42 67 146
42 68 72
42 69 217
42 70 152
42 71 61
42 72 183
42 73 140
42 74 127
42 75 269
42 76 146
42 77 59
42 78 108
42 79 263
42 80 127
42 81 20
42 82 23
42 83 119
42 84 217
42 85 219
42 86 75
42 87 252
42 88 215
42 89 55
42 90 11
43 44 136
43 45 188
43 46 103
43 47 77
43 48 113
43 49 263
43 50 220
43 51 149
43 52 27
43 53 144
43 54 263
43 55 243
43 56 160
43 57 136
43 58 240
43 59 141
43 60 149
43 61 253
43 62 76
43 63 95
43 64 34
43 65 142
43 66 132
43 67 43
43 68 61
43 69 116
43 70 237
43 71 73
43 72 38
43 73 23
43 74 23
43 75 201
43 76 25
43 77 76
43 78 95
43 79 2
43 80 54
43 81 53
43 82 121
43 83 19
43 84 188
43 85 222
43 86 263
43 87 263
43 88 145
43 89 137
43 90 180
44 45 7
44 46 197
44 47 221
44 48 92
44 49 137
44 50 214
44 51 154
44 52 213
44 53 218
44 54 259
44 55 147
44 56 48
44 57 19
44 58 242
44 59 223
44 60 155
44 61 132
44 62 29
44 63 219
44 64 44
44 65 8
44 66 73
44 67 149
44 68 108
44 69 175
44 70 88
44 71 69
44 72 108
44 73 241
44 74 198
44 75 43
44 76 63
44 77 192
44 78 229
44 79 230
44 80 18
44 81 159
44 82 167
44 83 30
44 84 62
44 85 141
44 86 204
44 87 66
44 88 143
44 89 78
44 90 220
45 46 141
45 47 257
45 48 225
45 49 250
45 50 135
45 51 55
45 52 180
45 53 18
45 54 175
45 55 141
45 56 59
45 57 28
45 58 202
45 59 215
45 60 210
45 61 64
45 62 18
45 63 123
45 64 46
45 65 160
45 66 103
45 67 118
45 68 80
45 69 109
45 70 4
45 71 252
45 72 26
45 73 54
45 74 2
45 75 243
45 76 183
45 77 245
45 78 134
45 79 107
45 80 248
45 81 118
45 82 180
45 83 243
45 84 113
45 85 237
45 86 12
45 87 118
45 88 19
45 89 180
45 90 134
46 47 154
46 48 97
46 49 241
46 50 248
46 51 26
46 52 191
46 53 212
46 54 204
46 55 82
46 56 125
46 57 202
46 58 156
46 59 20
46 60 171
46 61 62
46 62 264
46 63 62
46 64 249
46 65 53
46 66 222
46 67 264
46 68 16
46 69 134
46 70 247
46 71 172
46 72 105
46 73 180
46 74 263
46 75 233
46 76 267
46 77 147
46 78 51
46 79 62
46 80 229
46 81 58
46 82 64
46 83 249
46 84 115
46 85 211
46 86 183
46 87 96
46 88 211
46 89 239
46 90 83
47 48 59
47 49 24
47 50 235
47 51 97
47 52 69
47 53 135
47 54 53
47 55 110
47 56 140
47 57 74
47 58 239
47 59 210
47 60 143
47 61 224
47 62 228
47 63 43
47 64 216
47 65 19
47 66 125
47 67 113
47 68 71
47 69 8
47 70 141
47 71 134
47 72 257
47 73 45
47 74 170
47 75 168
47 76 93
47 77 175
47 78 172
47 79 23
47 80 53
47 81 72
47 82 21
47 83 90
47 84 169
47 85 110
47 86 132
47 87 90
47 88 204
47 89 78
47 90 143
48 49 113
48 50 142
48 51 81
48 52 72
48 53 137
48 54 210
48 55 108
48 56 2
48 57 153
48 58 206
48 59 269
48 60 207
48 61 73
48 62 98
48 63 75
48 64 108
48 65 169
48 66 227
48 67 36
48 68 111
48 69 44
48 70 259
48 71 21
48 72 41
48 73 116
48 74 41
48 75 40
48 76 14
48 77 247
48 78 254
48 79 162
48 80 80
48 81 66
48 82 118
48 83 150
48 84 67
48 85 171
48 86 242
48 87 242
48 88 33
48 89 218
48 90 202
49 50 74
49 51 160
49 52 56
49 53 144
49 54 188
49 55 76
49 56 109
49 57 252
49 58 262
49 59 218
49 60 244
49 61 131
49 62 189
49 63 168
49 64 84
49 65 140
49 66 210
49 67 206
49 68 133
49 69 31
49 70 238
49 71 112
49 72 48
49 73 71
49 74 174
49 75 70
49 76 164
49 77 46
49 78 42
49 79 176
49 80 2
49 81 156
49 82 172
49 83 116
49 84 268
49 85 85
49 86 189
49 87 26
49 88 211
49 89 177
49 90 149
50 51 125
50 52 91
50 53 256
50 54 76
50 55 189
50 56 185
50 57 85
50 58 89
50 59 141
50 60 94
50 61 253
50 62 268
50 63 80
50 64 121
50 65 227
50 66 235
50 67 208
50 68 184
50 69 75
50 70 241
50 71 173
50 72 230
50 73 47
50 74 10
50 75 49
50 76 74
50 77 184
50 78 133
50 79 11
50 80 256
50 81 218
50 82 262
50 83 113
50 84 135
50 85 177
50 86 112
50 87 63
50 88 180
50 89 34
50 90 35
51 52 258
51 53 157
51 54 229
51 55 154
51 56 66
51 57 194
51 58 89
51 59 140
51 60 239
51 61 147
51 62 238
51 63 107
51 64 104
51 65 269
51 66 34
51 67 8
51 68 54
51 69 257
51 70 180
51 71 212
51 72 106
51 73 67
51 74 185
51 75 264
51 76 181
51 77 69
51 78 181
51 79 107
51 80 146
51 81 73
51 82 5
51 83 251
51 84 184
51 85 72
51 86 100
51 87 218
51 88 97
51 89 178
51 90 218
52 53 72
52 54 125
52 55 220
52 56 77
52 57 176
52 58 231
52 59 124
52 60 218
52 61 195
52 62 6
52 63 136
52 64 196
52 65 218
52 66 228
52 67 235
52 68 151
52 69 232
52 70 254
52 71 86
52 72 122
52 73 176
52 74 116
52 75 269
52 76 227
52 77 226
52 78 50
52 79 109
52 80 90
52 81 85
52 82 127
52 83 114
52 84 213
52 85 253
52 86 225
52 87 149
52 88 90
52 89 58
52 90 98
53 54 81
53 55 167
53 56 194
53 57 123
53 58 256
53 59 156
53 60 154
53 61 50
53 62 120
53 63 39
53 64 238
53 65 37
53 66 209
53 67 222
53 68 126
53 69 80
53 70 86
53 71 108
53 72 143
53 73 80
53 74 263
53 75 26
53 76 62
53 77 169
53 78 85
53 79 24
53 80 24
53 81 66
53 82 255
53 83 140
53 84 73
53 85 81
53 86 23
53 87 196
53 88 231
53 89 97
53 90 259
54 55 146
54 56 263
54 57 222
54 58 108
54 59 4
54 60 80
54 61 232
54 62 114
54 63 63
54 64 122
54 65 136
54 66 77
54 67 14
54 68 222
54 69 171
54 70 124
54 71 218
54 72 74
54 73 126
54 74 221
54 75 173
54 76 88
54 77 170
54 78 245
54 79 159
54 80 177
54 81 129
54 82 224
54 83 3
54 84 191
54 85 125
54 86 174
54 87 206
54 88 71
54 89 129
54 90 138
55 56 265
55 57 115
55 58 225
55 59 264
55 60 42
55 61 246
55 62 224
55 63 25
55 64 124
55 65 53
55 66 46
55 67 50
55 68 259
55 69 194
55 70 2
55 71 170
55 72 119
55 73 86
55 74 14
55 75 156
55 76 128
55 77 60
55 78 212
55 79 86
55 80 4
55 81 216
55 82 187
55 83 45
55 84 186
55 85 53
55 86 168
55 87 99
55 88 40
55 89 37
55 90 230
56 57 96
56 58 15
56 59 177
56 60 105
56 61 93
56 62 180
56 63 60
56 64 252
56 65 210
56 66 155
56 67 142
56 68 76
56 69 205
56 70 202
56 71 250
56 72 216
56 73 180
56 74 100
56 75 36
56 76 176
56 77 119
56 78 73
56 79 135
56 80 227
56 81 195
56 82 157
56 83 106
56 84 191
56 85 25
56 86 97
56 87 71
56 88 170
56 89 37
56 90 189
57 58 221
57 59 10
57 60 95
57 61 180
57 62 142
57 63 133
57 64 185
57 65 7
57 66 79
57 67 88
57 68 243
57 69 156
57 70 106
57 71 113
57 72 78
57 73 61
57 74 50
57 75 147
57 76 39
57 77 162
57 78 56
57 79 48
57 80 240
57 81 47
57 82 216
57 83 181
57 84 246
57 85 40
57 86 104
57 87 149
57 88 91
57 89 131
57 90 213
58 59 36
58 60 48
58 61 148
58 62 170
58 63 14
58 64 187
58 65 187
58 66 227
58 67 198
58 68 156
58 69 58
58 70 122
58 71 183
58 72 14
58 73 13
58 74 206
58 75 94
58 76 134
58 77 235
58 78 38
58 79 132
58 80 84
58 81 228
58 82 251
58 83 225
58 84 41
58 85 223
58 86 81
58 87 85
58 88 257
58 89 163
58 90 255
59 60 152
59 61 21
59 62 260
59 63 108
59 64 160
59 65 267
59 66 73
59 67 264
59 68 265
59 69 137
59 70 138
59 71 37
59 72 236
59 73 122
59 74 85
59 75 184
59 76 151
59 77 113
59 78 18
59 79 71
59 80 126
59 81 237
59 82 4
59 83 134
59 84 36
59 85 151
59 86 51
59 87 31
59 88 249
59 89 253
59 90 36
60 61 211
60 62 108
60 63 233
60 64 162
60 65 72
60 66 42
60 67 259
60 68 166
60 69 113
60 70 127
60 71 202
60 72 73
60 73 132
60 74 12
60 75 12
60 76 195
60 77 11
60 78 100
60 79 177
60 80 14
60 81 55
60 82 181
60 83 162
60 84 122
60 85 61
60 86 62
60 87 29
60 88 15
60 89 219
60 90 219
61 62 121
61 63 76
61 64 247
61 65 245
61 66 202
61 67 26
61 68 60
61 69 224
61 70 207
61 71 131
61 72 136
61 73 181
61 74 42
61 75 76
61 76 22
61 77 79
61 78 167
61 79 117
61 80 265
61 81 137
61 82 39
61 83 36
61 84 95
61 85 192
61 86 65
61 87 218
61 88 230
61 89 255
61 90 268
62 63 10
62 64 229
62 65 71
62 66 257
62 67 240
62 68 125
62 69 40
62 70 164
62 71 135
62 72 72
62 73 127
62 74 142
62 75 200
62 76 70
62 77 51
62 78 190
62 79 252
62 80 182
62 81 81
62 82 171
62 83 127
62 84 157
62 85 175
62 86 140
62 87 66
62 88 216
62 89 178
62 90 205
63 64 119
63 65 183
63 66 248
63 67 269
63 68 265
63 69 148
63 70 162
63 71 172
63 72 47
63 73 242
63 74 15
63 75 160
63 76 83
63 77 176
63 78 135
63 79 28
63 80 149
63 81 58
63 82 72
63 83 46
63 84 65
63 85 199
63 86 214
63 87 192
63 88 75
63 89 239
63 90 184
64 65 118
64 66 174
64 67 61
64 68 203
64 69 42
64 70 81
64 71 6
64 72 162
64 73 125
64 74 135
64 75 268
64 76 27
64 77 34
64 78 82
64 79 142
64 80 244
64 81 86
64 82 91
64 83 13
64 84 183
64 85 81
64 86 195
64 87 73
64 88 238
64 89 214
64 90 39
65 66 212
65 67 119
65 68 133
65 69 135
65 70 243
65 71 34
65 72 145
65 73 225
65 74 240
65 75 200
65 76 101
65 77 88
65 78 7
65 79 242
65 80 188
65 81 67
65 82 63
65 83 42
65 84 144
65 85 1
65 86 190
65 87 161
65 88 262
65 89 37
65 90 254
66 67 175
66 68 113
66 69 198
66 70 127
66 71 16
66 72 223
66 73 89
66 74 120
66 75 169
66 76 17
66 77 222
66 78 100
66 79 248
66 80 158
66 81 75
66 82 65
66 83 115
66 84 29
66 85 45
66 86 268
66 87 32
66 88 135
66 89 89
66 90 132
67 68 120
67 69 159
67 70 192
67 71 250
67 72 189
67 73 216
67 74 178
67 75 55
67 76 218
67 77 50
67 78 145
67 79 18
67 80 28
67 81 83
67 82 118
67 83 224
67 84 47
67 85 215
67 86 141
67 87 269
67 88 162
67 89 164
67 90 214
68 69 90
68 70 18
68 71 58
68 72 121
68 73 194
68 74 254
68 75 62
68 76 249
68 77 150
68 78 200
68 79 137
68 80 246
68 81 222
68 82 30
68 83 251
68 84 101
68 85 36
68 86 228
68 87 233
68 88 192
68 89 31
68 90 192
69 70 44
69 71 62
69 72 102
69 73 130
69 74 240
69 75 243
69 76 1
69 77 176
69 78 234
69 79 69
69 80 67
69 81 54
69 82 188
69 83 170
69 84 43
69 85 60
69 86 125
69 87 2
69 88 185
69 89 263
69 90 97
70 71 179
70 72 216
70 73 30
70 74 7
70 75 150
70 76 120
70 77 187
70 78 155
70 79 18
70 80 227
70 81 252
70 82 263
70 83 238
70 84 71
70 85 125
70 86 88
70 87 84
70 88 150
70 89 26
70 90 207
71 72 137
71 73 234
71 74 253
71 75 0
71 76 126
71 77 179
71 78 50
71 79 126
71 80 80
71 81 73
71 82 103
71 83 230
71 84 256
71 85 245
71 86 256
71 87 29
71 88 98
71 89 38
71 90 181
72 73 263
72 74 52
72 75 60
72 76 269
72 77 73
72 78 223
72 79 223
72 80 16
72 81 229
72 82 24
72 83 174
72 84 230
72 85 193
72 86 176
72 87 35
72 88 107
72 89 265
72 90 123
73 74 177
73 75 45
73 76 42
73 77 10
73 78 46
73 79 6
73 80 46
73 81 209
73 82 128
73 83 136
73 84 244
73 85 181
73 86 205
73 87 194
73 88 228
73 89 188
73 90 181
74 75 47
74 76 193
74 77 81
74 78 43
74 79 163
74 80 69
74 81 218
74 82 145
74 83 0
74 84 55
74 85 175
74 86 139
74 87 189
74 88 266
74 89 215
74 90 154
75 76 96
75 77 0
75 78 38
75 79 189
75 80 255
75 81 235
75 82 241
75 83 7
75 84 186
75 85 42
75 86 13
75 87 25
75 88 90
75 89 247
75 90 164
76 77 247
76 78 101
76 79 65
76 80 217
76 81 42
76 82 228
76 83 41
76 84 255
76 85 30
76 86 5
76 87 67
76 88 123
76 89 77
76 90 139
77 78 95
77 79 69
77 80 36
77 81 169
77 82 258
77 83 223
77 84 228
77 85 19
77 86 46
77 87 173
77 88 173
77 89 130
77 90 6
78 79 239
78 80 213
78 81 216
78 82 30
78 83 87
78 84 108
78 85 8
78 86 120
78 87 23
78 88 235
78 89 196
78 90 18
79 80 49
79 81 68
79 82 117
79 83 59
79 84 80
79 85 71
79 86 30
79 87 159
79 88 21
79 89 72
79 90 167
80 81 177
80 82 206
80 83 144
80 84 128
80 85 83
80 86 212
80 87 235
80 88 143
80 89 265
80 90 104
81 82 51
81 83 85
81 84 7
81 85 252
81 86 144
81 87 15
81 88 143
81 89 171
81 90 97
82 83 266
82 84 41
82 85 146
82 86 45
82 87 42
82 88 133
82 89 216
82 90 228
83 84 192
83 85 105
83 86 46
83 87 252
83 88 119
83 89 180
83 90 168
84 85 52
84 86 6
84 87 0
84 88 159
84 89 79
84 90 13
85 86 225
85 87 161
85 88 22
85 89 145
85 90 133
86 87 228
86 88 86
86 89 13
86 90 2
87 88 152
87 89 31
87 90 144
88 89 83
88 90 216
89 90 97
